p cnf 18 96
-1 -2 0
-1 -3 0
-2 -1 0
-2 -3 0
-3 -1 0
-3 -2 0
-4 -5 0
-4 -6 0
-5 -4 0
-5 -6 0
-6 -4 0
-6 -5 0
-7 -8 0
-7 -9 0
-8 -7 0
-8 -9 0
-9 -7 0
-9 -8 0
-10 -11 0
-10 -12 0
-11 -10 0
-11 -12 0
-12 -10 0
-12 -11 0
-13 -14 0
-13 -15 0
-14 -13 0
-14 -15 0
-15 -13 0
-15 -14 0
-16 -17 0
-16 -18 0
-17 -16 0
-17 -18 0
-18 -16 0
-18 -17 0
-1 -4 0
-2 -5 0
-3 -6 0
-1 -10 0
-2 -11 0
-3 -12 0
-1 -13 0
-2 -14 0
-3 -15 0
-4 -1 0
-5 -2 0
-6 -3 0
-4 -7 0
-5 -8 0
-6 -9 0
-4 -10 0
-5 -11 0
-6 -12 0
-4 -13 0
-5 -14 0
-6 -15 0
-4 -16 0
-5 -17 0
-6 -18 0
-7 -4 0
-8 -5 0
-9 -6 0
-7 -13 0
-8 -14 0
-9 -15 0
-10 -1 0
-11 -2 0
-12 -3 0
-10 -4 0
-11 -5 0
-12 -6 0
-13 -1 0
-14 -2 0
-15 -3 0
-13 -4 0
-14 -5 0
-15 -6 0
-13 -7 0
-14 -8 0
-15 -9 0
-13 -16 0
-14 -17 0
-15 -18 0
-16 -4 0
-17 -5 0
-18 -6 0
-16 -13 0
-17 -14 0
-18 -15 0
1 2 3 0
4 5 6 0
7 8 9 0
10 11 12 0
13 14 15 0
16 17 18 0
